branch-and-cut/resultados/B/b04.sol
59
18
40 49
29 33
32 34
33 35
2 39
27 33
27 17
32 36
29 32
18 22
40 38
38 41
34 41
18 47
32 25
47 41
42 17
2 40
