branch-and-cut/resultados/B/b04.log

Gurobi 10.0.3 (linux64) logging started Fri Dec 15 18:14:10 2023

Set parameter LogFile to value "resultados/B/b04.log"
Set parameter Cutoff to value 68
Gurobi Optimizer version 10.0.3 build v10.0.3rc0 (linux64)

CPU model: Intel(R) Core(TM) i7-8650U CPU @ 1.90GHz, instruction set [SSE2|AVX|AVX2]
Thread count: 4 physical cores, 8 logical processors, using up to 8 threads

Optimize a model with 9 rows, 100 columns and 31 nonzeros
Model fingerprint: 0x47397019
Variable types: 0 continuous, 100 integer (100 binary)
Coefficient statistics:
  Matrix range     [1e+00, 1e+00]
  Objective range  [1e+00, 1e+01]
  Bounds range     [1e+00, 1e+00]
  RHS range        [1e+00, 1e+00]
Presolve time: 0.00s
Presolved: 9 rows, 100 columns, 31 nonzeros
Variable types: 0 continuous, 100 integer (100 binary)

Root relaxation: objective 3.000000e+01, 8 iterations, 0.00 seconds (0.00 work units)

    Nodes    |    Current Node    |     Objective Bounds      |     Work
 Expl Unexpl |  Obj  Depth IntInf | Incumbent    BestBd   Gap | It/Node Time

     0     0   30.00000    0    -          -   30.00000      -     -    0s
     0     0   45.00000    0    -          -   45.00000      -     -    0s
     0     0   46.50000    0   12          -   46.50000      -     -    0s
     0     0   49.00000    0    -          -   49.00000      -     -    0s
     0     0   51.00000    0   16          -   51.00000      -     -    0s
     0     0   51.50000    0   13          -   51.50000      -     -    0s
     0     0   52.25000    0    9          -   52.25000      -     -    0s
     0     2   53.00000    0   11          -   53.00000      -     -    0s
*   74    66              15      67.0000000   57.00000  14.9%  15.4    0s
*  111    90               9      59.0000000   57.60000  2.37%  13.8    0s

Cutting planes:
  User: 96
  MIR: 3
  Lazy constraints: 75

Explored 159 nodes (1844 simplex iterations) in 0.32 seconds (0.03 work units)
Thread count was 8 (of 8 available processors)

Solution count 2: 59 67 

Optimal solution found (tolerance 1.00e-04)
Best objective 5.900000000000e+01, best bound 5.900000000000e+01, gap 0.0000%

User-callback calls 508, time in user-callback 0.26 sec
